33D32945 STP File, STP Format Version 1.0

SECTION Comment
Name    "Series B" 
Creator "A. M. Costa" 
Format  "Z.H. Fu and J. K. Hao"
Remark  "Sparse graph with random weights"
#TotalEdgeCost 685
#BudgetFraction 5
END 

SECTION Graph 
Nodes 100 
Edges 125 
Root 1
Budget 137
HopLimit 12
E 1 59 6 
E 1 94 10 
E 2 16 2 
E 2 19 9 
E 2 47 9 
E 2 56 10 
E 3 68 5 
E 3 91 3 
E 4 74 9 
E 4 85 5 
E 5 8 6 
E 5 35 5 
E 5 53 1 
E 5 56 5 
E 5 84 1 
E 5 87 8 
E 5 99 3 
E 6 10 2 
E 6 87 8 
E 7 11 2 
E 7 34 2 
E 7 45 2 
E 7 64 7 
E 7 95 3 
E 9 51 5 
E 9 96 8 
E 10 29 5 
E 11 97 3 
E 12 48 2 
E 12 100 6 
E 13 14 3 
E 13 17 2 
E 13 57 2 
E 14 22 6 
E 15 42 7 
E 16 53 5 
E 17 23 6 
E 17 35 7 
E 18 54 1 
E 18 80 10 
E 19 36 4 
E 19 78 1 
E 20 63 4 
E 20 68 3 
E 20 95 3 
E 21 59 5 
E 21 60 9 
E 22 89 8 
E 23 37 1 
E 24 50 10 
E 24 53 8 
E 24 61 8 
E 25 73 8 
E 25 99 7 
E 26 34 10 
E 27 47 6 
E 28 74 10 
E 28 100 6 
E 30 81 7 
E 31 46 3 
E 31 66 5 
E 32 93 4 
E 33 87 8 
E 34 56 6 
E 34 100 3 
E 35 93 2 
E 38 95 2 
E 39 41 8 
E 39 57 7 
E 40 42 9 
E 40 96 7 
E 41 51 8 
E 42 75 1 
E 43 54 8 
E 43 68 7 
E 43 95 1 
E 44 54 1 
E 44 66 9 
E 44 98 2 
E 45 50 7 
E 47 72 4 
E 48 57 3 
E 48 76 8 
E 49 78 6 
E 51 53 7 
E 52 66 6 
E 53 78 6 
E 54 70 7 
E 54 75 3 
E 55 60 6 
E 56 62 9 
E 56 63 3 
E 57 86 6 
E 57 89 1 
E 58 79 2 
E 58 83 4 
E 58 89 7 
E 59 96 8 
E 60 71 6 
E 62 65 8 
E 62 74 8 
E 64 98 1 
E 66 68 8 
E 66 71 4 
E 67 90 2 
E 67 91 7 
E 68 70 3 
E 68 74 10 
E 68 88 8 
E 69 86 6 
E 71 81 3 
E 73 89 9 
E 73 96 1 
E 74 87 3 
E 74 96 10 
E 76 80 1 
E 76 89 9 
E 77 91 10 
E 78 96 9 
E 80 91 10 
E 82 89 8 
E 87 97 4 
E 89 92 3 
E 93 97 8 
E 99 100 3 
END 

SECTION ProfitableVertices 
ProfitableVertices 25 
PV 1 83
PV 12 24
PV 15 43
PV 16 90
PV 22 85
PV 25 62
PV 30 83
PV 39 69
PV 40 65
PV 41 54
PV 42 63
PV 43 25
PV 49 26
PV 65 66
PV 70 5
PV 71 45
PV 72 63
PV 76 95
PV 78 49
PV 79 17
PV 85 66
PV 86 46
PV 92 69
PV 96 66
PV 98 44
END 

EOF 
